data;

param: city: names :=
1 "Assuncao"
2 "Buenos Aires"
3 "San Pedro de Atacama"
4 "Bariloche"
5 "El Calafate"
;

param DIST: 1 2 3 4 5 :=
1 200000 476 527 1038 1658
2 476 200000 628 622 1041
3 527 628 200000 640 1763
4 1038 622 640 200000 625
5 1658 1041 1763 625 200000
;